
        $ From http://www.csplib.org/Problems/prob009/data/helmut.pdf
        $ Problem number 188
        $ Sequence length : 25
        language ESSENCE' 1.0
        letting sizemaster be 576
        letting sizes be sequence(1,4,9,11,15,19,22,34,36,53,60,76,82,84,104,126,127,128,153,156,165,174,183,219,237)
        